4 100 2193
7 6 5 7 7 9 11 10 6 10
1 2 4 3
9
4 8
3 3 9 1
2 1 5
0 35.0 35.0 0.0 0.0 0 230
2 41.0 49.0 10.0 10.0 0 204 77 1 0 1 0 0 1 1 0 1 0
3 35.0 17.0 10.0 7.0 0 202 96 0 0 0 1 0 1 1 0 0 1
4 55.0 45.0 10.0 13.0 0 197 52 0 0 0 0 0 0 0 0 0 1
5 55.0 20.0 10.0 19.0 149 159 63 0 0 0 0 1 1 0 0 0 0
6 15.0 30.0 10.0 26.0 0 199 94 0 0 0 0 0 1 0 0 0 0
7 25.0 30.0 10.0 3.0 99 109 98 0 1 0 0 0 0 0 0 1 0
8 20.0 50.0 10.0 5.0 0 198 66 0 0 0 1 0 1 0 0 0 0
9 10.0 43.0 10.0 9.0 95 105 59 1 0 0 1 0 0 0 0 1 0
10 55.0 60.0 10.0 16.0 97 107 71 1 0 0 0 0 0 0 0 0 0
11 30.0 60.0 10.0 16.0 124 134 34 0 1 0 0 0 0 0 0 0 0
12 20.0 65.0 10.0 12.0 67 77 73 0 1 0 0 1 0 0 0 0 0
13 50.0 35.0 10.0 19.0 0 205 61 0 0 0 0 0 1 0 0 0 0
14 30.0 25.0 10.0 23.0 159 169 83 1 1 1 0 0 0 0 0 0 1
15 15.0 10.0 10.0 20.0 0 187 83 0 0 0 0 0 1 1 0 1 0
16 30.0 5.0 10.0 8.0 61 71 66 1 0 0 1 0 0 0 1 0 1
17 10.0 20.0 10.0 19.0 0 190 98 0 1 0 0 0 1 0 0 0 0
18 5.0 30.0 10.0 2.0 157 167 43 0 0 0 0 1 0 1 0 0 0
19 20.0 40.0 10.0 12.0 0 204 63 1 1 0 0 1 0 0 1 0 0
20 15.0 60.0 10.0 17.0 0 187 82 1 0 0 1 0 0 1 0 0 0
21 45.0 65.0 10.0 9.0 0 188 16 0 0 0 1 0 0 0 0 1 0
22 45.0 20.0 10.0 11.0 0 201 83 0 0 0 0 0 0 0 0 0 1
23 45.0 10.0 10.0 18.0 97 107 21 0 1 0 0 1 0 0 1 0 1
24 55.0 5.0 10.0 29.0 68 78 26 0 0 0 0 0 1 0 0 0 0
25 65.0 35.0 10.0 3.0 0 190 6 0 0 0 0 0 1 1 0 0 0
26 65.0 20.0 10.0 6.0 172 182 23 0 0 1 1 0 0 0 0 1 0
27 45.0 30.0 10.0 17.0 0 208 19 0 1 0 0 0 1 0 0 0 1
28 35.0 40.0 10.0 16.0 37 47 68 0 0 1 0 1 0 0 0 0 1
29 41.0 37.0 10.0 16.0 0 213 47 0 0 0 0 0 0 0 1 0 0
30 64.0 42.0 10.0 9.0 0 190 75 0 1 1 0 0 0 0 0 0 0
31 40.0 60.0 10.0 21.0 71 81 59 0 0 1 0 0 1 0 1 0 0
32 31.0 52.0 10.0 27.0 0 202 64 0 0 0 0 0 1 0 0 0 0
33 35.0 69.0 10.0 23.0 0 186 51 0 1 0 0 0 0 0 1 0 1
34 53.0 52.0 10.0 11.0 37 47 21 0 0 0 0 0 1 0 0 0 0
35 65.0 55.0 10.0 14.0 0 183 10 0 0 0 1 0 0 0 0 0 1
36 63.0 65.0 10.0 8.0 143 153 91 0 0 0 0 0 0 0 0 0 1
37 2.0 60.0 10.0 5.0 41 51 69 0 1 0 0 0 1 1 0 0 0
38 20.0 20.0 10.0 8.0 0 198 19 0 0 1 0 0 0 0 0 0 0
39 5.0 5.0 10.0 16.0 83 93 2 0 0 1 0 0 0 0 0 0 0
40 60.0 12.0 10.0 31.0 44 54 39 0 0 0 1 0 0 1 0 0 0
41 40.0 25.0 10.0 9.0 85 95 15 0 1 1 0 0 0 0 1 0 0
42 42.0 7.0 10.0 5.0 97 107 38 0 0 1 1 1 0 0 0 0 0
43 24.0 12.0 10.0 5.0 31 41 45 0 1 1 0 0 0 1 0 0 0
44 23.0 3.0 10.0 7.0 0 185 75 1 0 0 0 0 0 0 0 0 1
45 11.0 14.0 10.0 18.0 69 79 12 0 0 0 0 0 1 0 0 0 0
46 6.0 38.0 10.0 16.0 32 42 36 0 1 1 0 0 0 1 0 1 0
47 2.0 48.0 10.0 1.0 0 184 40 1 0 0 0 0 0 0 0 1 0
48 8.0 56.0 10.0 27.0 0 185 82 0 0 0 0 0 0 1 1 0 0
49 13.0 52.0 10.0 36.0 0 192 37 0 0 1 0 0 1 0 0 1 0
50 6.0 68.0 10.0 30.0 108 118 7 0 0 0 0 0 0 0 0 1 0
51 47.0 47.0 10.0 13.0 0 203 0 0 0 0 0 1 0 1 0 0 0
52 49.0 58.0 10.0 10.0 0 193 76 0 1 1 1 1 0 0 0 0 0
53 27.0 43.0 10.0 9.0 0 208 4 0 0 0 0 1 0 0 1 0 0
54 37.0 31.0 10.0 14.0 95 105 67 0 1 0 0 0 0 1 0 0 0
55 57.0 29.0 10.0 18.0 0 197 16 0 1 0 0 1 0 0 0 0 1
56 63.0 23.0 10.0 2.0 136 146 9 1 0 0 1 0 1 0 0 0 0
57 53.0 12.0 10.0 6.0 130 140 34 0 0 1 0 0 0 0 1 0 0
58 32.0 12.0 10.0 7.0 0 196 2 0 0 0 0 0 1 0 0 0 0
59 36.0 26.0 10.0 18.0 200 210 43 1 0 1 0 0 0 0 1 0 0
60 21.0 24.0 10.0 28.0 0 202 69 0 0 0 0 0 0 0 0 1 1
61 17.0 34.0 10.0 3.0 0 201 19 0 0 0 1 0 0 0 0 0 0
62 12.0 24.0 10.0 13.0 0 194 60 0 0 0 0 0 1 1 1 0 0
63 24.0 58.0 10.0 19.0 58 68 50 0 0 0 1 1 0 0 0 0 0
64 27.0 69.0 10.0 10.0 0 185 90 1 0 0 0 0 0 0 0 0 0
65 15.0 77.0 10.0 9.0 73 83 1 0 1 0 0 0 1 1 0 0 0
66 62.0 77.0 10.0 20.0 51 61 66 0 0 0 1 0 0 0 0 0 0
67 49.0 73.0 10.0 25.0 127 137 36 0 0 0 0 0 1 0 0 0 0
68 67.0 5.0 10.0 25.0 83 93 97 0 1 0 0 0 0 0 0 0 1
69 56.0 39.0 10.0 36.0 142 152 5 0 0 0 0 0 1 0 0 0 0
70 37.0 47.0 10.0 6.0 50 60 75 0 1 1 0 0 1 0 0 0 1
71 37.0 56.0 10.0 5.0 182 192 26 1 0 0 0 1 0 0 0 0 0
72 57.0 68.0 10.0 15.0 0 180 65 0 0 0 0 0 1 0 1 0 0
73 47.0 16.0 10.0 25.0 0 197 1 0 0 0 1 0 0 0 1 0 0
74 44.0 17.0 10.0 9.0 0 199 5 0 0 0 1 0 0 0 0 0 0
75 46.0 13.0 10.0 8.0 149 159 93 0 0 0 0 0 0 0 0 1 0
76 49.0 11.0 10.0 18.0 0 192 33 0 0 1 1 0 0 0 1 0 0
77 49.0 42.0 10.0 13.0 73 83 4 0 0 0 1 0 1 1 0 0 0
78 53.0 43.0 10.0 14.0 179 189 94 1 0 0 0 0 0 1 1 0 0
79 61.0 52.0 10.0 3.0 96 106 77 0 0 0 0 0 1 0 0 0 1
80 57.0 48.0 10.0 23.0 92 102 95 0 0 0 0 0 0 1 0 0 0
81 56.0 37.0 10.0 6.0 182 192 43 0 0 1 0 0 0 0 0 1 0
82 55.0 54.0 10.0 26.0 0 192 97 1 0 0 0 0 0 0 0 0 0
83 15.0 47.0 10.0 16.0 0 196 48 1 0 0 1 1 1 1 0 0 0
84 14.0 37.0 10.0 11.0 0 198 74 0 1 0 0 0 0 0 1 0 0
85 11.0 31.0 10.0 7.0 101 111 14 1 0 1 1 1 0 0 0 1 0
86 16.0 22.0 10.0 41.0 0 196 25 0 0 0 1 0 0 0 0 0 0
87 4.0 18.0 10.0 35.0 0 184 53 0 0 1 0 0 0 1 0 1 0
88 28.0 18.0 10.0 26.0 93 103 66 1 1 0 0 0 0 0 0 1 0
89 26.0 52.0 10.0 9.0 74 84 43 0 0 1 0 0 1 0 1 1 0
90 26.0 35.0 10.0 15.0 0 211 40 0 0 0 0 0 1 0 0 0 0
91 31.0 67.0 10.0 3.0 0 187 24 0 0 0 0 0 1 0 0 0 0
92 15.0 19.0 10.0 1.0 0 194 49 0 0 0 0 0 1 0 0 0 0
93 22.0 22.0 10.0 2.0 18 28 31 0 0 0 0 0 1 0 0 0 0
94 18.0 24.0 10.0 22.0 188 198 68 0 0 0 0 0 0 1 0 1 1
95 26.0 27.0 10.0 27.0 0 207 84 0 0 1 0 0 0 0 0 0 0
96 25.0 24.0 10.0 20.0 0 205 98 0 0 0 0 0 1 0 0 0 0
97 22.0 27.0 10.0 11.0 0 204 59 0 0 0 0 1 0 0 0 0 1
98 25.0 21.0 10.0 12.0 0 202 93 1 0 0 0 0 0 0 0 0 0
99 19.0 21.0 10.0 10.0 0 198 95 0 0 0 0 0 0 0 1 0 0
100 20.0 26.0 10.0 9.0 83 93 77 0 0 0 0 0 0 0 1 0 0
101 18.0 18.0 10.0 17.0 185 195 65 0 0 0 1 0 0 0 1 0 0